p cnf 144 1
144 0
w 1 0.468885
w 2 1 1
w 2 -1 0
w 3 2 0
w 3 -2 1
w 4 3 1
w 4 -3 0
w 5 4 0.823374
w 5 -4 0.592186
w 6 5 1
w 6 -5 0
w 7 6 0.262804
w 7 -6 0.0143829
w 8 7 0.547747
w 8 -7 0.167248
w 9 8 0
w 9 -8 1
w 10 9 0.373257
w 10 -9 0.0331272
w 11 10 0
w 11 -10 1
w 12 11 0.0685506
w 12 -11 0.182113
w 13 1 0
w 13 -1 1
w 14 13 2 0.610048
w 14 13 -2 0.843341
w 14 -13 2 0.977124
w 14 -13 -2 0.938143
w 15 14 3 1
w 15 14 -3 0
w 15 -14 3 1
w 15 -14 -3 0
w 16 15 4 0
w 16 15 -4 0
w 16 -15 4 0
w 16 -15 -4 1
w 17 16 5 0.945772
w 17 16 -5 0.292148
w 17 -16 5 0.930743
w 17 -16 -5 0.245367
w 18 17 6 1
w 18 17 -6 1
w 18 -17 6 0
w 18 -17 -6 1
w 19 18 7 0.250453
w 19 18 -7 0.940446
w 19 -18 7 0.970854
w 19 -18 -7 0.391616
w 20 19 8 0.834067
w 20 19 -8 0.00166415
w 20 -19 8 0.371311
w 20 -19 -8 0.811191
w 21 20 9 0.694696
w 21 20 -9 0.142435
w 21 -20 9 0.70963
w 21 -20 -9 0.998866
w 22 21 10 1
w 22 21 -10 1
w 22 -21 10 0
w 22 -21 -10 1
w 23 22 11 0.215951
w 23 22 -11 0.517012
w 23 -22 11 0.740402
w 23 -22 -11 0.461319
w 24 23 12 0.551058
w 24 23 -12 0.0799429
w 24 -23 12 0.430455
w 24 -23 -12 0.422953
w 25 13 0.680908
w 25 -13 0.363399
w 26 25 14 0.0725239
w 26 25 -14 0.891369
w 26 -25 14 0.673604
w 26 -25 -14 0.074188
w 27 26 15 0
w 27 26 -15 1
w 27 -26 15 1
w 27 -26 -15 1
w 28 27 16 0.924284
w 28 27 -16 0.795264
w 28 -27 16 0.436705
w 28 -27 -16 0.970449
w 29 28 17 0
w 29 28 -17 1
w 29 -28 17 0
w 29 -28 -17 0
w 30 29 18 0.742714
w 30 29 -18 0.135752
w 30 -29 18 0.0715683
w 30 -29 -18 0.822657
w 31 30 19 0.494522
w 31 30 -19 0.69134
w 31 -30 19 0.247114
w 31 -30 -19 0.857921
w 32 31 20 0.319638
w 32 31 -20 0.74929
w 32 -31 20 0.204482
w 32 -31 -20 0.393826
w 33 32 21 1
w 33 32 -21 1
w 33 -32 21 0
w 33 -32 -21 1
w 34 33 22 0.24079
w 34 33 -22 0.926711
w 34 -33 22 0.362294
w 34 -33 -22 0.211239
w 35 34 23 0.0238634
w 35 34 -23 0.991348
w 35 -34 23 0.27355
w 35 -34 -23 0.202445
w 36 35 24 0.0162634
w 36 35 -24 0.338197
w 36 -35 24 0.583427
w 36 -35 -24 0.83892
w 37 25 0.077948
w 37 -25 0.53026
w 38 37 26 1
w 38 37 -26 1
w 38 -37 26 1
w 38 -37 -26 0
w 39 38 27 0
w 39 38 -27 0
w 39 -38 27 1
w 39 -38 -27 1
w 40 39 28 0.271402
w 40 39 -28 0.404252
w 40 -39 28 0.592064
w 40 -39 -28 0.512192
w 41 40 29 0
w 41 40 -29 1
w 41 -40 29 1
w 41 -40 -29 1
w 42 41 30 0.596668
w 42 41 -30 0.180666
w 42 -41 30 0.226637
w 42 -41 -30 0.612931
w 43 42 31 0.810063
w 43 42 -31 0.451851
w 43 -42 31 0.423267
w 43 -42 -31 0.888011
w 44 43 32 0.574786
w 44 43 -32 0.82388
w 44 -43 32 0.0432484
w 44 -43 -32 0.0459422
w 45 44 33 0.308867
w 45 44 -33 0.910925
w 45 -44 33 0.206168
w 45 -44 -33 0.263763
w 46 45 34 1
w 46 45 -34 0
w 46 -45 34 1
w 46 -45 -34 1
w 47 46 35 0
w 47 46 -35 0
w 47 -46 35 1
w 47 -46 -35 1
w 48 47 36 0
w 48 47 -36 0
w 48 -47 36 1
w 48 -47 -36 1
w 49 37 1
w 49 -37 0
w 50 49 38 0.903512
w 50 49 -38 0.520083
w 50 -49 38 0.410277
w 50 -49 -38 0.885623
w 51 50 39 0
w 51 50 -39 0
w 51 -50 39 1
w 51 -50 -39 0
w 52 51 40 1
w 52 51 -40 1
w 52 -51 40 0
w 52 -51 -40 1
w 53 52 41 0.0366659
w 53 52 -41 0.823446
w 53 -52 41 0.286716
w 53 -52 -41 0.084022
w 54 53 42 0.705781
w 54 53 -42 0.854809
w 54 -53 42 0.984452
w 54 -53 -42 0.103066
w 55 54 43 1
w 55 54 -43 0
w 55 -54 43 0
w 55 -54 -43 0
w 56 55 44 0.574843
w 56 55 -44 0.178354
w 56 -55 44 0.297915
w 56 -55 -44 0.98512
w 57 56 45 0
w 57 56 -45 0
w 57 -56 45 1
w 57 -56 -45 1
w 58 57 46 0.230587
w 58 57 -46 0.58533
w 58 -57 46 0.911839
w 58 -57 -46 0.732088
w 59 58 47 0.733848
w 59 58 -47 0.768754
w 59 -58 47 0.64424
w 59 -58 -47 0.0205639
w 60 59 48 0.38663
w 60 59 -48 0.726345
w 60 -59 48 0.707585
w 60 -59 -48 0.371082
w 61 49 0.0479597
w 61 -49 0.194263
w 62 61 50 0.100537
w 62 61 -50 0.469106
w 62 -61 50 0.288261
w 62 -61 -50 0.67538
w 63 62 51 0.586177
w 63 62 -51 0.6605
w 63 -62 51 0.711437
w 63 -62 -51 0.978961
w 64 63 52 0.704285
w 64 63 -52 0.512555
w 64 -63 52 0.842252
w 64 -63 -52 0.934872
w 65 64 53 1
w 65 64 -53 1
w 65 -64 53 0
w 65 -64 -53 1
w 66 65 54 0
w 66 65 -54 0
w 66 -65 54 1
w 66 -65 -54 0
w 67 66 55 0.32063
w 67 66 -55 0.0642581
w 67 -66 55 0.0440356
w 67 -66 -55 0.514893
w 68 67 56 0.144572
w 68 67 -56 0.983999
w 68 -67 56 0.862948
w 68 -67 -56 0.819952
w 69 68 57 0.449125
w 69 68 -57 0.480451
w 69 -68 57 0.342896
w 69 -68 -57 0.428086
w 70 69 58 1
w 70 69 -58 0
w 70 -69 58 1
w 70 -69 -58 1
w 71 70 59 0
w 71 70 -59 0
w 71 -70 59 1
w 71 -70 -59 0
w 72 71 60 0.953012
w 72 71 -60 0.37322
w 72 -71 60 0.469671
w 72 -71 -60 0.18786
w 73 61 1
w 73 -61 0
w 74 73 62 1
w 74 73 -62 1
w 74 -73 62 0
w 74 -73 -62 1
w 75 74 63 0
w 75 74 -63 0
w 75 -74 63 1
w 75 -74 -63 0
w 76 75 64 0.263547
w 76 75 -64 0.566963
w 76 -75 64 0.218535
w 76 -75 -64 0.310728
w 77 76 65 0.421015
w 77 76 -65 0.292782
w 77 -76 65 0.546129
w 77 -76 -65 0.377586
w 78 77 66 0.503332
w 78 77 -66 0.822096
w 78 -77 66 0.0265247
w 78 -77 -66 0.023455
w 79 78 67 0.399744
w 79 78 -67 0.493126
w 79 -78 67 0.962968
w 79 -78 -67 0.76904
w 80 79 68 0
w 80 79 -68 0
w 80 -79 68 1
w 80 -79 -68 0
w 81 80 69 0.877813
w 81 80 -69 0.731643
w 81 -80 69 0.118129
w 81 -80 -69 0.798464
w 82 81 70 0.976436
w 82 81 -70 0.0620116
w 82 -81 70 0.437484
w 82 -81 -70 0.194971
w 83 82 71 1
w 83 82 -71 1
w 83 -82 71 0
w 83 -82 -71 0
w 84 83 72 0.607318
w 84 83 -72 0.994548
w 84 -83 72 0.815669
w 84 -83 -72 0.633842
w 85 73 0
w 85 -73 1
w 86 85 74 1
w 86 85 -74 0
w 86 -85 74 0
w 86 -85 -74 0
w 87 86 75 0.383176
w 87 86 -75 0.810721
w 87 -86 75 0.725271
w 87 -86 -75 0.260989
w 88 87 76 0.843401
w 88 87 -76 0.0594536
w 88 -87 76 0.412885
w 88 -87 -76 0.819837
w 89 88 77 0
w 89 88 -77 0
w 89 -88 77 1
w 89 -88 -77 0
w 90 89 78 0
w 90 89 -78 0
w 90 -89 78 1
w 90 -89 -78 0
w 91 90 79 1
w 91 90 -79 0
w 91 -90 79 0
w 91 -90 -79 1
w 92 91 80 0.584558
w 92 91 -80 0.2371
w 92 -91 80 0.604906
w 92 -91 -80 0.353389
w 93 92 81 1
w 93 92 -81 0
w 93 -92 81 0
w 93 -92 -81 0
w 94 93 82 0.79077
w 94 93 -82 0.308525
w 94 -93 82 0.11936
w 94 -93 -82 0.610606
w 95 94 83 1
w 95 94 -83 0
w 95 -94 83 1
w 95 -94 -83 1
w 96 95 84 1
w 96 95 -84 0
w 96 -95 84 1
w 96 -95 -84 0
w 97 85 0
w 97 -85 1
w 98 97 86 0.351424
w 98 97 -86 0.686329
w 98 -97 86 0.442646
w 98 -97 -86 0.935982
w 99 98 87 0.0475527
w 99 98 -87 0.289372
w 99 -98 87 0.145526
w 99 -98 -87 0.0356353
w 100 99 88 1
w 100 99 -88 0
w 100 -99 88 1
w 100 -99 -88 1
w 101 100 89 0.279317
w 101 100 -89 0.494271
w 101 -100 89 0.0232233
w 101 -100 -89 0.249045
w 102 101 90 0
w 102 101 -90 1
w 102 -101 90 1
w 102 -101 -90 1
w 103 102 91 1
w 103 102 -91 0
w 103 -102 91 1
w 103 -102 -91 1
w 104 103 92 1
w 104 103 -92 1
w 104 -103 92 0
w 104 -103 -92 1
w 105 104 93 0.521651
w 105 104 -93 0.153856
w 105 -104 93 0.889449
w 105 -104 -93 0.557286
w 106 105 94 0.982344
w 106 105 -94 0.841993
w 106 -105 94 0.767296
w 106 -105 -94 0.866009
w 107 106 95 0
w 107 106 -95 0
w 107 -106 95 1
w 107 -106 -95 1
w 108 107 96 0
w 108 107 -96 0
w 108 -107 96 1
w 108 -107 -96 1
w 109 97 0
w 109 -97 1
w 110 109 98 0
w 110 109 -98 1
w 110 -109 98 0
w 110 -109 -98 0
w 111 110 99 0.274178
w 111 110 -99 0.280676
w 111 -110 99 0.48239
w 111 -110 -99 0.0180997
w 112 111 100 0.636246
w 112 111 -100 0.907548
w 112 -111 100 0.359613
w 112 -111 -100 0.243585
w 113 112 101 0.201606
w 113 112 -101 0.0108804
w 113 -112 101 0.755901
w 113 -112 -101 0.636832
w 114 113 102 0
w 114 113 -102 1
w 114 -113 102 1
w 114 -113 -102 0
w 115 114 103 0.663039
w 115 114 -103 0.452002
w 115 -114 103 0.93836
w 115 -114 -103 0.039009
w 116 115 104 0.257879
w 116 115 -104 0.814136
w 116 -115 104 0.25373
w 116 -115 -104 0.711564
w 117 116 105 0.871636
w 117 116 -105 0.985741
w 117 -116 105 0.901391
w 117 -116 -105 0.354026
w 118 117 106 0
w 118 117 -106 1
w 118 -117 106 0
w 118 -117 -106 1
w 119 118 107 1
w 119 118 -107 0
w 119 -118 107 0
w 119 -118 -107 1
w 120 119 108 0.30223
w 120 119 -108 0.673364
w 120 -119 108 0.99705
w 120 -119 -108 0.655382
w 121 109 1
w 121 -109 0
w 122 121 110 0
w 122 121 -110 0
w 122 -121 110 1
w 122 -121 -110 1
w 123 122 111 0.171565
w 123 122 -111 0.539569
w 123 -122 111 0.406002
w 123 -122 -111 0.792279
w 124 123 112 0
w 124 123 -112 0
w 124 -123 112 1
w 124 -123 -112 0
w 125 124 113 0
w 125 124 -113 0
w 125 -124 113 1
w 125 -124 -113 0
w 126 125 114 0
w 126 125 -114 0
w 126 -125 114 1
w 126 -125 -114 0
w 127 126 115 0.338801
w 127 126 -115 0.624475
w 127 -126 115 0.191707
w 127 -126 -115 0.60831
w 128 127 116 0
w 128 127 -116 1
w 128 -127 116 0
w 128 -127 -116 0
w 129 128 117 1
w 129 128 -117 1
w 129 -128 117 0
w 129 -128 -117 1
w 130 129 118 0.051418
w 130 129 -118 0.525072
w 130 -129 118 0.331663
w 130 -129 -118 0.447002
w 131 130 119 0.0871654
w 131 130 -119 0.753976
w 131 -130 119 0.383178
w 131 -130 -119 0.0765236
w 132 131 120 0.108834
w 132 131 -120 0.310619
w 132 -131 120 0.527668
w 132 -131 -120 0.736259
w 133 121 0.866469
w 133 -121 0.360735
w 134 133 122 1
w 134 133 -122 0
w 134 -133 122 1
w 134 -133 -122 1
w 135 134 123 1
w 135 134 -123 0
w 135 -134 123 0
w 135 -134 -123 0
w 136 135 124 0.955991
w 136 135 -124 0.286859
w 136 -135 124 0.141923
w 136 -135 -124 0.00740891
w 137 136 125 0.473586
w 137 136 -125 0.454411
w 137 -136 125 0.734391
w 137 -136 -125 0.560752
w 138 137 126 0
w 138 137 -126 1
w 138 -137 126 1
w 138 -137 -126 0
w 139 138 127 0.598286
w 139 138 -127 0.962662
w 139 -138 127 0.794838
w 139 -138 -127 0.464755
w 140 139 128 1
w 140 139 -128 1
w 140 -139 128 1
w 140 -139 -128 0
w 141 140 129 0.849451
w 141 140 -129 0.798601
w 141 -140 129 0.164397
w 141 -140 -129 0.145767
w 142 141 130 0
w 142 141 -130 1
w 142 -141 130 1
w 142 -141 -130 1
w 143 142 131 0
w 143 142 -131 1
w 143 -142 131 0
w 143 -142 -131 1
w 144 143 132 0.771965
w 144 143 -132 0.204809
w 144 -143 132 0.553423
w 144 -143 -132 0.842582